n_nodes = 30;
edges = [
	{2, 3, 4, 5, 6, 7, 8, 9, 10, 11, 12, 13, 14, 15, 16, 17, 18, 20, 25},
	{3, 4, 5, 6, 7, 8, 9, 10, 11, 12, 13, 14, 15, 16, 17, 18, 20, 25},
	{4, 5, 6, 7, 8, 9, 10, 11, 12, 13, 14, 15, 16, 17, 18},
	{5, 6, 7, 8, 9, 10, 11, 12, 13, 14, 15, 16, 17, 18},
	{6, 7, 8, 9, 10, 11, 12, 13, 14, 15, 16, 17, 18},
	{7, 8, 9, 10, 11, 12, 13, 14, 15, 16, 17, 18, 20, 25},
	{8, 9, 10, 11, 12, 13, 14, 15, 16, 17, 18, 22},
	{9, 10, 11, 12, 13, 14, 15, 16, 17, 18},
	{10, 11, 12, 13, 14, 15, 16, 17, 18},
	{11, 12, 13, 14, 15, 16, 17, 18, 25},
	{12, 13, 14, 15, 16, 17, 18, 20, 25},
	{13, 14, 15, 16, 17, 18},
	{14, 15, 16, 17, 18, 19, 20, 25},
	{16, 17, 18, 15},
	{16, 17, 18},
	{25, 18, 22, 17},
	{18, 22},
	{ },
	{20, 21, 22, 23, 24, 25, 26, 27, 28, 29, 30},
	{21, 22, 23, 24, 25, 26, 27, 28, 29, 30},
	{22, 23, 24, 25, 26, 27, 28, 29, 30},
	{23, 24, 25, 26, 27, 28, 29, 30},
	{24, 25, 26, 27, 28, 29, 30},
	{25, 26, 27, 28, 29, 30},
	{26, 27, 28, 29, 30},
	{27, 28, 29, 30},
	{28, 29, 30},
	{29, 30},
	{30},
	{ }
];